mapa = [|
         9,9,9,9,9,9,9,9,9|
         9,9,9,8,8,8,9,9,9|
         9,0,1,8,8,8,1,0,9|
         9,0,1,8,8,8,1,0,9|
         9,0,1,1,1,1,1,0,9|
         9,0,0,0,0,0,0,0,9|
         9,0,0,0,0,0,0,0,9|
         9,9,9,9,9,9,9,9,9|];
dimx = 8;
dimy = 9;
filav = 7;
colav = 5;
from = [1,2,3,4,5,6,7,8,10,11,12,13,14,15,16,17,19,20,21,22,23,24,25,26,28,29,30,31,32,33,34,35,37,38,39,40,41,42,43,44,46,47,48,49,50,51,52,53,55,56,57,58,59,60,61,62,1,2,3,4,5,6,7,8,10,11,12,13,14,15,16,17,19,20,21,22,23,24,25,26,28,29,30,31,32,33,34,35,37,38,39,40,41,42,43,44,46,47,48,49,50,51,52,53,55,56,57,58,59,60,61,62,9,18,27,36,45,54,63,64,65,66,67,68,69,70,71];
to = [2,3,4,5,6,7,8,9,11,12,13,14,15,16,17,18,20,21,22,23,24,25,26,27,29,30,31,32,33,34,35,36,38,39,40,41,42,43,44,45,47,48,49,50,51,52,53,54,56,57,58,59,60,61,62,63,10,11,12,13,14,15,16,17,19,20,21,22,23,24,25,26,28,29,30,31,32,33,34,35,37,38,39,40,41,42,43,44,46,47,48,49,50,51,52,53,55,56,57,58,59,60,61,62,64,65,66,67,68,69,70,71,18,27,36,45,54,63,72,65,66,67,68,69,70,71,72];
